<?xml version = "1.0" encoding="UTF-8" standalone="yes"?>
<CPLEXSolution version="1.2">
 <header
   problemName="hal_2.0.lp"
   solutionName="incumbent"
   solutionIndex="-1"
   objectiveValue="3"
   solutionTypeValue="3"
   solutionTypeString="primal"
   solutionStatusValue="101"
   solutionStatusString="integer optimal solution"
   solutionMethodString="mip"
   primalFeasible="1"
   dualFeasible="1"
   MIPNodes="0"
   MIPIterations="48"
   writeLevel="1"/>
 <quality
   epInt="1.0000000000000001e-05"
   epRHS="9.9999999999999995e-07"
   maxIntInfeas="0"
   maxPrimalInfeas="0"
   maxX="2"
   maxSlack="6"/>
 <linearConstraints>
  <constraint name="c1" index="0" slack="0"/>
  <constraint name="c2" index="1" slack="0"/>
  <constraint name="c3" index="2" slack="0"/>
  <constraint name="c4" index="3" slack="0"/>
  <constraint name="c5" index="4" slack="0"/>
  <constraint name="c6" index="5" slack="0"/>
  <constraint name="c7" index="6" slack="0"/>
  <constraint name="c8" index="7" slack="0"/>
  <constraint name="c9" index="8" slack="0"/>
  <constraint name="c10" index="9" slack="0"/>
  <constraint name="c11" index="10" slack="0"/>
  <constraint name="c12" index="11" slack="0"/>
  <constraint name="c13" index="12" slack="0"/>
  <constraint name="c14" index="13" slack="2"/>
  <constraint name="c15" index="14" slack="0"/>
  <constraint name="c16" index="15" slack="1"/>
  <constraint name="c17" index="16" slack="1"/>
  <constraint name="c18" index="17" slack="0"/>
  <constraint name="c19" index="18" slack="1"/>
  <constraint name="c20" index="19" slack="1"/>
  <constraint name="c21" index="20" slack="1"/>
  <constraint name="c22" index="21" slack="1"/>
  <constraint name="c23" index="22" slack="1"/>
  <constraint name="c24" index="23" slack="1"/>
  <constraint name="c25" index="24" slack="1"/>
  <constraint name="c26" index="25" slack="2"/>
  <constraint name="c27" index="26" slack="1"/>
  <constraint name="c28" index="27" slack="1"/>
  <constraint name="c29" index="28" slack="1"/>
  <constraint name="c30" index="29" slack="1"/>
  <constraint name="c31" index="30" slack="0"/>
  <constraint name="c32" index="31" slack="0"/>
  <constraint name="c33" index="32" slack="0"/>
  <constraint name="c34" index="33" slack="6"/>
  <constraint name="c35" index="34" slack="4"/>
  <constraint name="c36" index="35" slack="0"/>
  <constraint name="c37" index="36" slack="0"/>
  <constraint name="c38" index="37" slack="4"/>
  <constraint name="c39" index="38" slack="3"/>
  <constraint name="c40" index="39" slack="0"/>
  <constraint name="c41" index="40" slack="0"/>
 </linearConstraints>
 <variables>
  <variable name="M1" index="0" value="2"/>
  <variable name="M2" index="1" value="1"/>
  <variable name="x0,5" index="2" value="-0"/>
  <variable name="x0,6" index="3" value="-0"/>
  <variable name="x0,7" index="4" value="-0"/>
  <variable name="x0,8" index="5" value="0"/>
  <variable name="x0,9" index="6" value="-0"/>
  <variable name="x0,10" index="7" value="0"/>
  <variable name="x0,11" index="8" value="1"/>
  <variable name="x1,5" index="9" value="-0"/>
  <variable name="x1,6" index="10" value="-0"/>
  <variable name="x1,7" index="11" value="0"/>
  <variable name="x1,8" index="12" value="0"/>
  <variable name="x1,9" index="13" value="1"/>
  <variable name="x1,10" index="14" value="0"/>
  <variable name="x1,11" index="15" value="-0"/>
  <variable name="x2,3" index="16" value="1"/>
  <variable name="x2,4" index="17" value="-0"/>
  <variable name="x2,5" index="18" value="-0"/>
  <variable name="x2,6" index="19" value="-0"/>
  <variable name="x2,7" index="20" value="-0"/>
  <variable name="x2,8" index="21" value="-0"/>
  <variable name="x2,9" index="22" value="-0"/>
  <variable name="x3,2" index="23" value="1"/>
  <variable name="x3,3" index="24" value="-0"/>
  <variable name="x3,4" index="25" value="-0"/>
  <variable name="x3,5" index="26" value="-0"/>
  <variable name="x3,6" index="27" value="-0"/>
  <variable name="x3,7" index="28" value="0"/>
  <variable name="x3,8" index="29" value="-0"/>
  <variable name="x4,1" index="30" value="1"/>
  <variable name="x4,2" index="31" value="-0"/>
  <variable name="x4,3" index="32" value="-0"/>
  <variable name="x4,4" index="33" value="-0"/>
  <variable name="x4,5" index="34" value="-0"/>
  <variable name="x4,6" index="35" value="-0"/>
  <variable name="x4,7" index="36" value="-0"/>
  <variable name="x5,4" index="37" value="0"/>
  <variable name="x5,5" index="38" value="-0"/>
  <variable name="x5,6" index="39" value="-0"/>
  <variable name="x5,7" index="40" value="-0"/>
  <variable name="x5,8" index="41" value="0"/>
  <variable name="x5,9" index="42" value="-0"/>
  <variable name="x5,10" index="43" value="0"/>
  <variable name="x5,11" index="44" value="1"/>
  <variable name="x6,2" index="45" value="0"/>
  <variable name="x6,3" index="46" value="-0"/>
  <variable name="x6,4" index="47" value="-0"/>
  <variable name="x6,5" index="48" value="-0"/>
  <variable name="x6,6" index="49" value="1"/>
  <variable name="x6,7" index="50" value="-0"/>
  <variable name="x6,8" index="51" value="-0"/>
  <variable name="x6,9" index="52" value="-0"/>
  <variable name="x7,2" index="53" value="-0"/>
  <variable name="x7,3" index="54" value="-0"/>
  <variable name="x7,4" index="55" value="1"/>
  <variable name="x7,5" index="56" value="-0"/>
  <variable name="x7,6" index="57" value="-0"/>
  <variable name="x7,7" index="58" value="-0"/>
  <variable name="x7,8" index="59" value="0"/>
  <variable name="x7,9" index="60" value="-0"/>
  <variable name="x7,10" index="61" value="0"/>
  <variable name="x7,11" index="62" value="-0"/>
  <variable name="x8,1" index="63" value="0"/>
  <variable name="x8,2" index="64" value="0"/>
  <variable name="x8,3" index="65" value="1"/>
  <variable name="x8,4" index="66" value="-0"/>
  <variable name="x8,5" index="67" value="-0"/>
  <variable name="x8,6" index="68" value="-0"/>
  <variable name="x8,7" index="69" value="-0"/>
  <variable name="x8,8" index="70" value="-0"/>
  <variable name="x8,9" index="71" value="0"/>
  <variable name="x8,10" index="72" value="0"/>
  <variable name="x9,2" index="73" value="0"/>
  <variable name="x9,3" index="74" value="0"/>
  <variable name="x9,4" index="75" value="0"/>
  <variable name="x9,5" index="76" value="0"/>
  <variable name="x9,6" index="77" value="0"/>
  <variable name="x9,7" index="78" value="0"/>
  <variable name="x9,8" index="79" value="0"/>
  <variable name="x9,9" index="80" value="0"/>
  <variable name="x9,10" index="81" value="0"/>
  <variable name="x9,11" index="82" value="0"/>
  <variable name="x9,12" index="83" value="1"/>
  <variable name="x10,1" index="84" value="0"/>
  <variable name="x10,2" index="85" value="0"/>
  <variable name="x10,3" index="86" value="0"/>
  <variable name="x10,4" index="87" value="0"/>
  <variable name="x10,5" index="88" value="0"/>
  <variable name="x10,6" index="89" value="0"/>
  <variable name="x10,7" index="90" value="0"/>
  <variable name="x10,8" index="91" value="0"/>
  <variable name="x10,9" index="92" value="0"/>
  <variable name="x10,10" index="93" value="0"/>
  <variable name="x10,11" index="94" value="1"/>
  <variable name="x6,1" index="95" value="0"/>
  <variable name="x7,1" index="96" value="0"/>
  <variable name="x2,2" index="97" value="0"/>
  <variable name="x5,3" index="98" value="0"/>
  <variable name="x0,4" index="99" value="0"/>
  <variable name="x1,4" index="100" value="0"/>
  <variable name="x2,10" index="101" value="0"/>
  <variable name="x6,10" index="102" value="0"/>
  <variable name="x0,12" index="103" value="0"/>
  <variable name="x1,12" index="104" value="0"/>
  <variable name="x5,12" index="105" value="0"/>
  <variable name="x7,12" index="106" value="0"/>
 </variables>
</CPLEXSolution>
